c cnf generated by mark.reason.ac.CompilerAce written by Mark Chavira
c
c Following are a few statistics:
c
c     Number of potentials               : 14
c     Number of constant potentials      : 0
c     Number of root potentials          : 1
c     Number of zero-one root potentials : 0
c     Number of literals                 : 216
c
p cnf 82 82
1 2 0
-2 -1 0
-2 3 0
-1 4 0
5 6 0
-6 -5 0
-5 -2 7 0
-6 -1 8 0
-5 -1 9 0
-6 -2 10 0
11 12 0
-12 -11 0
-12 -1 13 0
-11 -2 14 0
-12 -2 15 0
-11 -1 16 0
17 18 0
-18 -17 0
-17 -2 19 0
-18 -1 20 0
-17 -1 21 0
-18 -2 22 0
23 24 0
-24 -23 0
-24 -1 25 0
-23 -2 26 0
-24 -2 27 0
-23 -1 28 0
29 30 0
-30 -29 0
-30 -1 31 0
-29 -2 32 0
-30 -2 33 0
-29 -1 34 0
35 36 0
-36 -35 0
-35 -2 37 0
-35 -1 38 0
-36 -1 39 0
-36 -2 40 0
41 42 0
-42 -41 0
-42 -1 43 0
-41 -2 44 0
-42 -2 45 0
-41 -1 46 0
47 48 0
-48 -47 0
-48 -1 49 0
-48 -2 50 0
-47 -2 51 0
-47 -1 52 0
53 54 0
-54 -53 0
-54 -1 55 0
-53 -2 56 0
-54 -2 57 0
-53 -1 58 0
59 60 0
-60 -59 0
-60 -1 61 0
-60 -2 62 0
-59 -2 63 0
-59 -1 64 0
65 66 0
-66 -65 0
-65 -2 67 0
-66 -1 68 0
-65 -1 69 0
-66 -2 70 0
71 72 0
-72 -71 0
-71 -1 73 0
-72 -2 74 0
-71 -2 75 0
-72 -1 76 0
77 78 0
-78 -77 0
-78 -1 79 0
-77 -2 80 0
-78 -2 81 0
-77 -1 82 0
